GLPSOL: GLPK LP/MIP Solver, v4.65
Parameter(s) specified in the command line:
 -m transportation-penalties-A.mod -d transportation-penalties-small.dat --log
 transportation-penalties-A-small.log --xcheck
Reading model section from transportation-penalties-A.mod...
50 lines were read
Reading data section from transportation-penalties-small.dat...
33 lines were read
Checking (line 11)...
Generating Calculating_Demand_Satisfied...
Generating Availability_at_Supply_Points...
Generating Shortage_Penalty_Constraint...
Generating Surplus_Penalty_Constraint...
Generating Total_Costs...
Model has been successfully generated
GLPK Simplex Optimizer, v4.65
23 rows, 36 columns, 108 non-zeros
Preprocessing...
22 rows, 36 columns, 78 non-zeros
Scaling...
 A: min|aij| =  1.000e+00  max|aij| =  3.000e+00  ratio =  3.000e+00
Problem data seem to be well scaled
Constructing initial basis...
Size of triangular part is 22
      0: obj =   0.000000000e+00 inf =   2.250e+03 (6)
      9: obj =   3.690000000e+03 inf =   0.000e+00 (0)
*    15: obj =   1.450000000e+03 inf =   0.000e+00 (0)
OPTIMAL LP SOLUTION FOUND
glp_exact: 23 rows, 36 columns, 108 non-zeros
GNU MP bignum library is being used
*    15:   objval =                   1450   (0)
*    15:   objval =                   1450   (0)
OPTIMAL SOLUTION FOUND
Time used:   0.0 secs
Memory used: 0.2 Mb (162110 bytes)
Optimal cost: 1450.
Required: D1, Satisfied: 120 (+0)
Required: D2, Satisfied: 40 (-100)
Required: D3, Satisfied: 170 (+0)
Required: D4, Satisfied: 90 (+0)
Required: D5, Satisfied: 0 (-110)
Required: D6, Satisfied: 0 (-120)
From S2 to D1, transport 120 amount for 120 (unit cost: 1).
From S2 to D2, transport 40 amount for 80 (unit cost: 2).
From S2 to D4, transport 90 amount for 90 (unit cost: 1).
From S3 to D3, transport 170 amount for 170 (unit cost: 1).
Model has been successfully processed
